	clingo --stats ../../../../../../../../../../../env/asprilo/asprilo-abstraction-encodings/instances/md/structured/x10_y6_r10/x10_y6_n60_r10_s10_ps1_pr10_u10_o10_l10_N005.lp ../../../../../../../../../../../env/asprilo/asprilo-abstraction-encodings/asprilo/misc/augment-m-to-md.lp ../../../../../../../../../../../env/asprilo/asprilo-abstraction-encodings/encodings/torsten/md/action-MD.lp ../../../../../../../../../../../env/asprilo/asprilo-abstraction-encodings/encodings/torsten/md/goal-MD.lp ../../../../../../../../../../../env/asprilo/asprilo-abstraction-encodings/encodings/torsten/md/output-M.lp -c horizon=15	
clingo version 5.4.0
Reading from ...0_r10_s10_ps1_pr10_u10_o10_l10_N005.lp ...
Solving...
Answer: 1
init(object(highway,1),value(at,(1,1))) init(object(highway,2),value(at,(1,2))) init(object(highway,3),value(at,(1,3))) init(object(highway,4),value(at,(1,4))) init(object(highway,5),value(at,(1,5))) init(object(highway,7),value(at,(2,1))) init(object(highway,8),value(at,(2,2))) init(object(highway,11),value(at,(2,5))) init(object(highway,13),value(at,(3,1))) init(object(highway,14),value(at,(3,2))) init(object(highway,17),value(at,(3,5))) init(object(highway,19),value(at,(4,1))) init(object(highway,20),value(at,(4,2))) init(object(highway,21),value(at,(4,3))) init(object(highway,22),value(at,(4,4))) init(object(highway,23),value(at,(4,5))) init(object(highway,26),value(at,(5,2))) init(object(highway,29),value(at,(5,5))) init(object(highway,31),value(at,(6,1))) init(object(highway,32),value(at,(6,2))) init(object(highway,35),value(at,(6,5))) init(object(highway,37),value(at,(7,1))) init(object(highway,38),value(at,(7,2))) init(object(highway,39),value(at,(7,3))) init(object(highway,40),value(at,(7,4))) init(object(highway,41),value(at,(7,5))) init(object(highway,43),value(at,(8,1))) init(object(highway,44),value(at,(8,2))) init(object(highway,47),value(at,(8,5))) init(object(highway,49),value(at,(9,1))) init(object(highway,50),value(at,(9,2))) init(object(highway,53),value(at,(9,5))) init(object(highway,55),value(at,(10,1))) init(object(highway,56),value(at,(10,2))) init(object(highway,57),value(at,(10,3))) init(object(highway,58),value(at,(10,4))) init(object(highway,59),value(at,(10,5))) init(object(node,1),value(at,(1,1))) init(object(node,2),value(at,(1,2))) init(object(node,3),value(at,(1,3))) init(object(node,4),value(at,(1,4))) init(object(node,5),value(at,(1,5))) init(object(node,6),value(at,(1,6))) init(object(node,7),value(at,(2,1))) init(object(node,8),value(at,(2,2))) init(object(node,9),value(at,(2,3))) init(object(node,10),value(at,(2,4))) init(object(node,11),value(at,(2,5))) init(object(node,12),value(at,(2,6))) init(object(node,13),value(at,(3,1))) init(object(node,14),value(at,(3,2))) init(object(node,15),value(at,(3,3))) init(object(node,16),value(at,(3,4))) init(object(node,17),value(at,(3,5))) init(object(node,18),value(at,(3,6))) init(object(node,19),value(at,(4,1))) init(object(node,20),value(at,(4,2))) init(object(node,21),value(at,(4,3))) init(object(node,22),value(at,(4,4))) init(object(node,23),value(at,(4,5))) init(object(node,24),value(at,(4,6))) init(object(node,25),value(at,(5,1))) init(object(node,26),value(at,(5,2))) init(object(node,27),value(at,(5,3))) init(object(node,28),value(at,(5,4))) init(object(node,29),value(at,(5,5))) init(object(node,30),value(at,(5,6))) init(object(node,31),value(at,(6,1))) init(object(node,32),value(at,(6,2))) init(object(node,33),value(at,(6,3))) init(object(node,34),value(at,(6,4))) init(object(node,35),value(at,(6,5))) init(object(node,36),value(at,(6,6))) init(object(node,37),value(at,(7,1))) init(object(node,38),value(at,(7,2))) init(object(node,39),value(at,(7,3))) init(object(node,40),value(at,(7,4))) init(object(node,41),value(at,(7,5))) init(object(node,42),value(at,(7,6))) init(object(node,43),value(at,(8,1))) init(object(node,44),value(at,(8,2))) init(object(node,45),value(at,(8,3))) init(object(node,46),value(at,(8,4))) init(object(node,47),value(at,(8,5))) init(object(node,48),value(at,(8,6))) init(object(node,49),value(at,(9,1))) init(object(node,50),value(at,(9,2))) init(object(node,51),value(at,(9,3))) init(object(node,52),value(at,(9,4))) init(object(node,53),value(at,(9,5))) init(object(node,54),value(at,(9,6))) init(object(node,55),value(at,(10,1))) init(object(node,56),value(at,(10,2))) init(object(node,57),value(at,(10,3))) init(object(node,58),value(at,(10,4))) init(object(node,59),value(at,(10,5))) init(object(node,60),value(at,(10,6))) init(object(robot,1),value(at,(10,6))) init(object(robot,2),value(at,(9,6))) init(object(robot,3),value(at,(8,6))) init(object(robot,4),value(at,(7,6))) init(object(robot,5),value(at,(6,6))) init(object(robot,6),value(at,(5,6))) init(object(robot,7),value(at,(4,6))) init(object(robot,8),value(at,(3,6))) init(object(robot,9),value(at,(2,6))) init(object(robot,10),value(at,(1,6))) init(object(destination,1),value(at,(5,4))) init(object(destination,2),value(at,(3,4))) init(object(destination,3),value(at,(5,3))) init(object(destination,4),value(at,(6,4))) init(object(destination,5),value(at,(8,4))) init(object(destination,6),value(at,(3,3))) init(object(destination,7),value(at,(8,3))) init(object(destination,8),value(at,(2,4))) init(object(destination,9),value(at,(9,3))) init(object(destination,10),value(at,(6,3))) occurs(object(robot,1),action(move,(-1,0)),1) occurs(object(robot,1),action(move,(-1,0)),2) occurs(object(robot,1),action(move,(-1,0)),3) occurs(object(robot,1),action(move,(-1,0)),4) occurs(object(robot,1),action(move,(-1,0)),5) occurs(object(robot,1),action(move,(0,-1)),6) occurs(object(robot,1),action(move,(0,-1)),7) occurs(object(robot,2),action(move,(-1,0)),1) occurs(object(robot,2),action(move,(-1,0)),2) occurs(object(robot,2),action(move,(0,-1)),3) occurs(object(robot,2),action(move,(0,-1)),4) occurs(object(robot,2),action(move,(-1,0)),5) occurs(object(robot,2),action(move,(-1,0)),6) occurs(object(robot,2),action(move,(-1,0)),7) occurs(object(robot,2),action(move,(-1,0)),8) occurs(object(robot,3),action(move,(0,-1)),1) occurs(object(robot,3),action(move,(0,-1)),2) occurs(object(robot,3),action(move,(-1,0)),3) occurs(object(robot,3),action(move,(-1,0)),4) occurs(object(robot,3),action(move,(-1,0)),5) occurs(object(robot,3),action(move,(0,-1)),6) occurs(object(robot,4),action(move,(0,-1)),1) occurs(object(robot,4),action(move,(1,0)),2) occurs(object(robot,4),action(move,(0,-1)),3) occurs(object(robot,4),action(move,(-1,0)),8) occurs(object(robot,4),action(move,(-1,0)),9) occurs(object(robot,5),action(move,(0,-1)),1) occurs(object(robot,5),action(move,(1,0)),2) occurs(object(robot,5),action(move,(1,0)),3) occurs(object(robot,5),action(move,(1,0)),4) occurs(object(robot,5),action(move,(0,-1)),5) occurs(object(robot,5),action(move,(-1,0)),8) occurs(object(robot,6),action(move,(0,-1)),1) occurs(object(robot,6),action(move,(0,-1)),2) occurs(object(robot,6),action(move,(-1,0)),3) occurs(object(robot,6),action(move,(-1,0)),4) occurs(object(robot,6),action(move,(0,-1)),5) occurs(object(robot,7),action(move,(0,-1)),1) occurs(object(robot,7),action(move,(1,0)),2) occurs(object(robot,7),action(move,(0,-1)),3) occurs(object(robot,7),action(move,(0,-1)),4) occurs(object(robot,7),action(move,(1,0)),6) occurs(object(robot,7),action(move,(1,0)),9) occurs(object(robot,7),action(move,(1,0)),10) occurs(object(robot,8),action(move,(0,-1)),1) occurs(object(robot,8),action(move,(-1,0)),2) occurs(object(robot,8),action(move,(0,-1)),3) occurs(object(robot,9),action(move,(1,0)),1) occurs(object(robot,9),action(move,(1,0)),2) occurs(object(robot,9),action(move,(1,0)),3) occurs(object(robot,9),action(move,(0,-1)),4) occurs(object(robot,9),action(move,(1,0)),5) occurs(object(robot,9),action(move,(0,-1)),6) occurs(object(robot,9),action(move,(1,0)),7) occurs(object(robot,9),action(move,(0,-1)),8) occurs(object(robot,9),action(move,(1,0)),9) occurs(object(robot,9),action(move,(1,0)),10) occurs(object(robot,10),action(move,(1,0)),1) occurs(object(robot,10),action(move,(1,0)),2) occurs(object(robot,10),action(move,(0,-1)),3) occurs(object(robot,10),action(move,(1,0)),4) occurs(object(robot,10),action(move,(1,0)),5) occurs(object(robot,10),action(move,(1,0)),6) occurs(object(robot,10),action(move,(0,-1)),7) occurs(object(robot,10),action(move,(0,-1)),9)
SATISFIABLE

Models       : 1+
Calls        : 1
Time         : 0.169s (Solving: 0.00s 1st Model: 0.00s Unsat: 0.00s)
CPU Time     : 0.164s

Choices      : 444     
Conflicts    : 6        (Analyzed: 6)
Restarts     : 0       
Model-Level  : 390.0   
Problems     : 1        (Average Length: 0.00 Splits: 0)
Lemmas       : 6        (Deleted: 0)
  Binary     : 0        (Ratio:   0.00%)
  Ternary    : 1        (Ratio:  16.67%)
  Conflict   : 6        (Average Length:    9.2 Ratio: 100.00%) 
  Loop       : 0        (Average Length:    0.0 Ratio:   0.00%) 
  Other      : 0        (Average Length:    0.0 Ratio:   0.00%) 
Backjumps    : 6        (Average:  9.00 Max:  28 Sum:     54)
  Executed   : 6        (Average:  9.00 Max:  28 Sum:     54 Ratio: 100.00%)
  Bounded    : 0        (Average:  0.00 Max:   0 Sum:      0 Ratio:   0.00%)

Rules        : 60486    (Original: 52454)
  Choice     : 150     
Atoms        : 11799   
Bodies       : 39118    (Original: 31086)
  Count      : 696      (Original: 1186)
Equivalences : 7647     (Atom=Atom: 245 Body=Body: 214 Other: 7188)
Tight        : Yes
Variables    : 34002    (Eliminated:    0 Frozen: 6060)
Constraints  : 123543   (Binary:  75.2% Ternary:  18.4% Other:   6.4%)

